nbObj= 50;
Capacity= 1660;
Profit =[ 81,77,58,9,21,80,97,92,3,110,96,67,13,90,26,13,37,91,98,52,26,114,67,106,69,52,35,99,51,59,76,78,81,28,43,91,54,30,62,93,101,84,86,54,109,105,52,97,10,57];
Weight =[ 87,79,66,11,13,80,105,86,13,102,102,67,15,94,26,13,39,89,106,60,32,106,73,98,75,48,35,105,59,55,68,72,83,36,37,83,62,28,56,97,101,82,82,60,109,101,54,107,10,53];
